-1 -523 0
-519 -455 -59 0
67 -523 0
-522 -523 0
-523 0
1 0
-59 0
465 0
117 0
-407 0
-175 0
125 9 0
d 19 125 9 0
-67 0
513 0
473 0
48 0
30 0
521 0
69 0
-455 0
-281 0
-70 0
-415 0
-241 0
-341 0
-370 0
-106 0
-280 0
-388 0
-457 0
-125 0
-133 0
-173 0
-181 0
-233 0
-88 0
-262 0
-349 0
-289 0
-78 0
-463 0
-467 0
-7 0
-496 0
-47 0
-514 0
-55 0
-127 0
-409 0
-11 0
-301 0
56 0
49 0
38 0
375 0
399 0
9 0
163 0
37 0
187 0
29 0
27 0
479 0
483 0
24 0
42 0
51 0
188 0
476 0
297 0
335 0
359 0
19 0
223 0
8 0
0
